data/exact/exact_023.gr
p tdp 30 38
1 4
1 22
1 3
1 30
2 11
2 30
2 7
3 6
3 7
4 5
4 18
5 20
5 6
6 20
7 8
8 9
8 12
9 10
9 13
11 16
11 12
12 13
13 14
14 17
14 15
15 20
18 21
18 24
19 29
19 22
19 24
22 23
23 30
24 27
25 26
25 27
26 28
27 29
