solutions/best/exact/exact_023.sol
7
23
0
2
3
6
20
8
13
10
8
8
11
4
20
14
11
14
27
4
13
18
1
19
18
26
27
19
26
27
1
